20	5
0	4	4	2	3	1
1	2	15	13
2	2	7	10
3	2	20	19
4	2	14	10
5	1	18
6	1	17
7	1	14
8	1	20
9	2	7	5
10	2	15	17
11	1	9
12	1	16
13	1	11
14	1	6
15	1	5
16	2	19	8
17	1	18
18	1	12
19	1	21
20	1	21
21	0
0	0	0	0	0	0	0
1	4	5	1	4	1	1
2	6	5	5	5	4	5
3	9	1	3	3	5	5
4	7	5	1	3	3	2
5	7	1	3	5	2	5
6	6	1	3	5	2	2
7	1	4	1	3	5	4
8	9	3	3	1	1	2
9	10	3	5	2	2	4
10	6	2	4	5	1	3
11	7	3	2	3	2	2
12	9	4	3	2	4	4
13	3	3	4	4	4	1
14	6	1	1	4	5	3
15	2	1	1	2	3	3
16	3	3	3	4	5	4
17	10	5	5	5	4	4
18	5	5	2	2	3	1
19	9	3	2	4	4	5
20	3	2	3	1	3	4
21	0	0	0	0	0	0
8	6	8	7	7
